68131.4
53969.4
41311.6
34615.2
29008
25136.1
20446.4
17676.1
17676.1
17676.1
17676.1
17676.1
17676.1
17676.1
17676.1
17676.1
17676.1
17676.1
17676.1
17676.1
17442.6
17442.6
17247
16035.8
16035.8
16035.8
16035.8
16035.8
16035.8
16035.8
16035.8
16035.8
16035.8
16035.8
16035.8
16035.8
16035.8
15451.4
15451.4
15451.4
15451.4
15451.4
15451.4
15451.4
15451.4
15451.4
15451.4
15451.4
15451.4
15451.4
15451.4
15451.4
15451.4
15451.4
15451.4
15451.4
15451.4
15451.4
15451.4
15451.4
15451.4
15451.4
15451.4
15451.4
15451.4
15451.4
15451.4
15451.4
15451.4
15451.4
15451.4
15451.4
15451.4
15451.4
15451.4
15451.4
15451.4
15451.4
15451.4
15451.4
15451.4
15451.4
15451.4
15451.4
15451.4
15451.4
15451.4
15451.4
15451.4
15451.4
15451.4
15451.4
15451.4
15451.4
15451.4
15451.4
15451.4
15451.4
15451.4
15451.4
